param n := 120;
param c := 1500
param : V : p w :=
   0	  39	  29
   1	  36	  26
   2	  93	  83
   3	  92	  82
   4	 102	  92
   5	 105	  95
   6	  97	  87
   7	  73	  63
   8	  67	  57
   9	 110	 100
  10	  73	  63
  11	  75	  65
  12	  91	  81
  13	  56	  46
  14	  52	  42
  15	 105	  95
  16	 100	  90
  17	  90	  80
  18	  63	  53
  19	  37	  27
  20	  94	  84
  21	  50	  40
  22	  32	  22
  23	 107	  97
  24	  30	  20
  25	  83	  73
  26	  73	  63
  27	 105	  95
  28	  56	  46
  29	  52	  42
  30	  57	  47
  31	  50	  40
  32	  36	  26
  33	  98	  88
  34	  59	  49
  35	  34	  24
  36	 102	  92
  37	  97	  87
  38	  78	  68
  39	 105	  95
  40	  44	  34
  41	  92	  82
  42	  94	  84
  43	  53	  43
  44	  64	  54
  45	  83	  73
  46	  76	  66
  47	  42	  32
  48	  72	  62
  49	  58	  48
  50	 109	  99
  51	 100	  90
  52	  96	  86
  53	  38	  28
  54	  35	  25
  55	  35	  25
  56	  99	  89
  57	  77	  67
  58	 106	  96
  59	  45	  35
  60	  43	  33
  61	  80	  70
  62	  50	  40
  63	  69	  59
  64	  42	  32
  65	 104	  94
  66	  44	  34
  67	  96	  86
  68	  45	  35
  69	  55	  45
  70	  35	  25
  71	  86	  76
  72	  90	  80
  73	  52	  42
  74	 101	  91
  75	  54	  44
  76	 101	  91
  77	 107	  97
  78	  70	  60
  79	  39	  29
  80	  55	  45
  81	  47	  37
  82	  71	  61
  83	  64	  54
  84	  88	  78
  85	  66	  56
  86	  84	  74
  87	  84	  74
  88	  55	  45
  89	  31	  21
  90	 106	  96
  91	  47	  37
  92	  85	  75
  93	 110	 100
  94	  68	  58
  95	  94	  84
  96	  95	  85
  97	  66	  56
  98	  64	  54
  99	  81	  71
 100	  62	  52
 101	  89	  79
 102	  53	  43
 103	  45	  35
 104	  37	  27
 105	  80	  70
 106	  41	  31
 107	  57	  47
 108	  45	  35
 109	  36	  26
 110	  40	  30
 111	 107	  97
 112	 100	  90
 113	  90	  80
 114	  68	  58
 115	  70	  60
 116	  83	  73
 117	  56	  46
 118	  81	  71
 119	  49	  39
;

set E :=
   0	  38
   0	  40
   0	  43
   0	  68
   0	  70
   0	  83
   0	  84
   0	  92
   0	  99
   1	  14
   1	  16
   1	  17
   1	  23
   1	  28
   1	  44
   1	  59
   1	  90
   1	  95
   1	 105
   2	  28
   2	  29
   2	  30
   2	  42
   2	  51
   2	  58
   2	  60
   2	  67
   2	  77
   2	  84
   2	  95
   2	  96
   2	 104
   2	 112
   3	   5
   3	  22
   3	  38
   3	  51
   3	  56
   3	  57
   3	  59
   3	  63
   3	  64
   3	  71
   3	  75
   3	  79
   3	  85
   3	  90
   3	  97
   3	 114
   3	 116
   3	 119
   4	  10
   4	  20
   4	  23
   4	  30
   4	  55
   4	  60
   4	  79
   4	 114
   4	 117
   5	   8
   5	  15
   5	  17
   5	  40
   5	  42
   5	  51
   5	  54
   5	  61
   5	  69
   5	  76
   5	  86
   5	  89
   5	 100
   5	 112
   6	   9
   6	  14
   6	  25
   6	  56
   6	  62
   6	  63
   6	  69
   6	  73
   6	  94
   6	 101
   6	 109
   6	 114
   7	  17
   7	  40
   7	  62
   7	  64
   7	  73
   7	  76
   7	  81
   7	  86
   7	  87
   8	   9
   8	  18
   8	  20
   8	  47
   8	  56
   8	  61
   8	  63
   8	  80
   8	  91
   8	  99
   8	 104
   8	 113
   9	  11
   9	  19
   9	  77
   9	  83
   9	  99
   9	 108
  10	  14
  10	  18
  10	  20
  10	  38
  10	  39
  10	  45
  10	  62
  10	  73
  10	  78
  10	 114
  11	  37
  11	  40
  11	  54
  11	  67
  11	  72
  11	  86
  11	  92
  11	 101
  11	 102
  11	 104
  12	  15
  12	  16
  12	  55
  12	  59
  12	  64
  12	  74
  12	  75
  12	 101
  12	 119
  13	  18
  13	  24
  13	  27
  13	  35
  13	  36
  13	  42
  13	  60
  13	  62
  13	  80
  13	  92
  13	  95
  13	  99
  13	 102
  13	 110
  13	 116
  14	  25
  14	  52
  14	  53
  14	  60
  14	  71
  14	 108
  14	 112
  14	 119
  15	  26
  15	  32
  15	  45
  15	  49
  15	  59
  15	  64
  15	  66
  15	  73
  15	  89
  15	 102
  15	 105
  15	 109
  15	 112
  15	 113
  15	 116
  15	 118
  16	  29
  16	  32
  16	  39
  16	  43
  16	  62
  16	  70
  16	  78
  16	  96
  16	 105
  16	 106
  16	 115
  17	  19
  17	  63
  17	  64
  17	  77
  17	  79
  17	 114
  17	 115
  18	  32
  18	  33
  18	  38
  18	  40
  18	  43
  18	  47
  18	  64
  18	  98
  18	 103
  18	 109
  18	 112
  18	 113
  18	 115
  19	  32
  19	  44
  19	  71
  19	  90
  19	  91
  19	 101
  19	 113
  20	  40
  20	  48
  20	  51
  20	  53
  20	  56
  20	  65
  20	  69
  20	  90
  20	  94
  20	 118
  21	  22
  21	  25
  21	  35
  21	  40
  21	  46
  21	  52
  21	  58
  21	  67
  21	  68
  21	  97
  21	 102
  21	 106
  21	 110
  21	 112
  22	  34
  22	  37
  22	  39
  22	  49
  22	  53
  22	  54
  22	  66
  22	  68
  22	  69
  23	  37
  23	  40
  23	  42
  23	  45
  23	  52
  23	  68
  23	 107
  23	 114
  24	  43
  24	  87
  24	  93
  24	 111
  25	  35
  25	  64
  25	  70
  25	  91
  25	  92
  25	 107
  25	 113
  26	  31
  26	  35
  26	  37
  26	  49
  26	  65
  26	  67
  26	  86
  26	  90
  26	  97
  26	 106
  26	 107
  26	 110
  26	 113
  27	  29
  27	  45
  27	  65
  27	  68
  27	  70
  27	  85
  27	  90
  27	  94
  27	  97
  27	 105
  28	  34
  28	  54
  28	  66
  28	  74
  28	  75
  28	  86
  28	  96
  28	  98
  28	 118
  29	  36
  29	  37
  29	  38
  29	  40
  29	  41
  29	  47
  29	  55
  29	  63
  29	  88
  29	  98
  29	 106
  29	 112
  30	  50
  30	  61
  30	  70
  30	  73
  30	  74
  30	  79
  30	  84
  30	 112
  31	  43
  31	  49
  31	  60
  31	  74
  31	  78
  31	  88
  31	  89
  31	  94
  31	 109
  32	  33
  32	  38
  32	  57
  32	  61
  32	  78
  32	  79
  32	  84
  32	 101
  32	 106
  32	 113
  32	 114
  33	  45
  33	  53
  33	  80
  33	  95
  33	 107
  33	 110
  33	 118
  34	  49
  34	  57
  34	  80
  34	  87
  34	  94
  34	 103
  34	 104
  34	 110
  34	 111
  35	  45
  35	  50
  35	  57
  35	  64
  35	  65
  35	  90
  35	  92
  35	 101
  35	 102
  36	  37
  36	  70
  37	  43
  37	  47
  37	  65
  37	  75
  37	  79
  37	  81
  37	  85
  37	  97
  37	 108
  37	 118
  38	  39
  38	  40
  38	  71
  38	  84
  38	  92
  38	 112
  38	 114
  38	 119
  39	  52
  39	  54
  39	  63
  39	  77
  39	  80
  39	  87
  39	 105
  39	 107
  39	 114
  40	  51
  40	  59
  40	  70
  40	  75
  40	  83
  40	  88
  40	 103
  40	 107
  40	 109
  40	 114
  40	 116
  41	  64
  41	  69
  41	  95
  41	  96
  41	 107
  41	 115
  41	 116
  42	  55
  42	  80
  42	  83
  42	  95
  42	 102
  43	  48
  43	  51
  43	  70
  43	  75
  43	  95
  43	 107
  43	 108
  43	 116
  43	 119
  44	  45
  44	  47
  44	  53
  44	  56
  44	  62
  44	  72
  44	  91
  44	  96
  44	  98
  44	 108
  44	 113
  45	  51
  45	  57
  45	  63
  45	  64
  45	  69
  45	  75
  45	  89
  45	 107
  46	  50
  46	  56
  46	  62
  46	  69
  46	  82
  46	 102
  47	  48
  47	  49
  47	  61
  47	  71
  47	  75
  47	  83
  47	  90
  47	  97
  47	 102
  47	 109
  48	  88
  48	 103
  48	 111
  48	 112
  48	 119
  49	  51
  49	  62
  49	  64
  49	  79
  49	  85
  49	 109
  49	 112
  50	  60
  50	  63
  50	  77
  50	  78
  50	  80
  50	  84
  50	  93
  50	  95
  50	 112
  50	 113
  51	  52
  51	  63
  51	  80
  51	  82
  51	  85
  51	  88
  51	  91
  51	  93
  51	 109
  52	  56
  52	  76
  52	  78
  52	  85
  52	  86
  52	  87
  52	 111
  52	 118
  53	  59
  53	  63
  53	  81
  53	  84
  53	  88
  53	 100
  53	 101
  53	 118
  54	  73
  54	  83
  54	 100
  54	 107
  54	 118
  55	  62
  55	  71
  55	  73
  55	 104
  55	 108
  55	 111
  56	  89
  56	 108
  56	 119
  57	  76
  57	  87
  57	  96
  57	 111
  57	 116
  58	  84
  58	  89
  58	 101
  59	  62
  59	  79
  59	  81
  59	  93
  59	  94
  60	 116
  60	 119
  61	  77
  61	  85
  61	  90
  61	 100
  61	 103
  61	 115
  62	  65
  62	  87
  62	  97
  62	 111
  63	  69
  63	  72
  63	  82
  63	 103
  63	 106
  63	 107
  63	 108
  63	 118
  64	  69
  64	  92
  64	 106
  64	 108
  64	 115
  65	  71
  65	  79
  65	  87
  65	 109
  65	 110
  65	 111
  66	  67
  66	  68
  66	  74
  66	  76
  66	  94
  66	 103
  66	 104
  66	 109
  66	 119
  67	  74
  67	  78
  67	 100
  67	 103
  68	  71
  68	  77
  68	  80
  68	  85
  68	 103
  68	 116
  68	 117
  69	  71
  69	  74
  69	  87
  69	  96
  69	 105
  69	 109
  69	 110
  70	  73
  70	  86
  70	 111
  70	 115
  71	  92
  71	  96
  71	  99
  71	 106
  72	  78
  72	  85
  72	 101
  72	 104
  72	 117
  72	 119
  73	  86
  74	  83
  74	 103
  74	 117
  75	  78
  75	  92
  75	  95
  75	  96
  75	 105
  75	 106
  75	 109
  75	 116
  76	  79
  76	  88
  76	 115
  77	  80
  77	  85
  77	  87
  77	  88
  77	 106
  77	 111
  78	  85
  78	  90
  78	  92
  78	  98
  78	 113
  78	 117
  78	 118
  79	  91
  79	 101
  79	 114
  80	  97
  80	 101
  80	 109
  80	 112
  80	 116
  80	 119
  81	  86
  81	  91
  81	  98
  81	 105
  81	 116
  82	  97
  82	 115
  83	  86
  83	  90
  83	 104
  84	  85
  84	  92
  84	 100
  84	 110
  85	  89
  85	  96
  85	 100
  86	  90
  86	  91
  86	  95
  86	 101
  86	 102
  87	 107
  88	  92
  88	  95
  88	 103
  88	 110
  88	 112
  88	 114
  88	 116
  89	 109
  89	 115
  89	 116
  90	 102
  90	 118
  91	  95
  91	 107
  92	  98
  92	 101
  92	 117
  93	 107
  93	 112
  94	  96
  95	 118
  96	  98
  96	 107
  96	 109
  96	 114
  97	 111
  98	 101
  98	 108
  98	 111
  98	 113
  99	 102
 100	 111
 100	 116
 101	 102
 101	 115
 102	 109
 103	 112
 103	 113
 104	 110
 104	 115
 105	 108
 105	 114
 106	 118
 107	 118
 107	 119
 108	 113
 108	 118
 111	 116
 113	 119
 114	 118
;
